315
252
283
910
1000
556
330
188
788
281
1000
260
712
610
778
229
529
327
47
840
665
981
768
349
517
464
193
140
136
227
1000
394
431
610
1000
748
213
348
914
1000
142
466
711
679
216
330
331
315
597
926
493
966
1000
286
839
327
121
450
88
228
1000
1000
1000
302
735
991
905
664
767
511
978
182
1000
711
550
514
1000
665
1000
269
365
1000
435
1000
907
439
134
534
770
642
1000
513
199
1000
569
157
291
259
297
830
